(declare-const fee_bl Real)
(declare-const p1 Real)
(declare-const income Real)
(declare-const p3 Real)
(declare-const p2 Real)
(assert (= p1 (* 0.058 (ite (> income 53600) 53600 income))))
(assert (= p2 (ite (> income 53600) (* 0.0675 (- (ite (> income 126900) 126900 income) 53600)) 0)))
(assert (= p3 (ite (> income 126900) (* 0.0715 (- income 126900)) 0)))
(assert (= fee_bl (+ (+ p1 p2) p3)))